; benchmark generated from python API
(set-info :status unknown)
(declare-fun L_1 () Real)
(declare-fun A_1 () Real)
(declare-fun S_4 () Real)
(declare-fun B () Real)
(declare-fun S_0 () Real)
(declare-fun S_1 () Real)
(declare-fun S_2 () Real)
(declare-fun L_0 () Real)
(declare-fun A_0 () Real)
(declare-fun S_3 () Real)
(declare-fun A_2 () Real)
(declare-fun A_3 () Real)
(declare-fun A_4 () Real)
(assert
 (let (($x6614 (<= (+ (* (- 2.0) S_4) (* (- 1.0) A_0) (* 3.0 S_2) L_0) 0.0)))
 (let (($x3972 (<= (+ (* (- (/ 1.0 2.0)) S_4) (* (- 1.0) A_0) (* (/ 3.0 2.0) S_1) L_0) 0.0)))
 (let (($x2105 (<= (+ (* (- 1.0) A_0) (* (- 1.0) S_3) (* 2.0 S_1) L_0) 0.0)))
 (let (($x34 (>= L_0 0.0)))
 (let (($x4642 (not (<= B 5.0))))
 (let (($x16132 (or (<= (+ (* (- (/ 1.0 2.0)) S_3) (* (/ 1.0 2.0) S_0)) (- 5.0)) (<= (+ (* (- 1.0) L_1) A_1 (* (- 1.0) S_3)) (- 5.0)))))
 (let (($x15893 (<= 0.0 (+ (* (- 1.0) A_1) S_2 L_1))))
 (let (($x16001 (or (not (<= 0.0 (+ (* (- 1.0) B) S_4 (* (- 2.0) S_2) S_0))) $x15893)))
 (let (($x13256 (<= (+ (* (- 2.0) L_1) (* 2.0 A_1) S_4 (* (- 3.0) S_3)) 0.0)))
 (let (($x15664 (or (<= (+ (* (- (/ 1.0 3.0)) S_4) (* (/ 1.0 3.0) S_0)) (- 5.0)) (<= (+ (* (- (/ 1.0 2.0)) L_1) (* (/ 1.0 2.0) A_1) (* (- (/ 1.0 2.0)) S_4)) (- 5.0)))))
 (let (($x11492 (<= (+ (* (/ 1.0 2.0) L_1) (* (- (/ 1.0 2.0)) A_1) (* (- (/ 1.0 2.0)) S_4) S_2) 0.0)))
 (let ((?x953 (* (/ 1.0 2.0) L_1)))
 (let ((?x954 (* (- (/ 1.0 2.0)) A_1)))
 (let ((?x950 (* (/ 1.0 2.0) S_4)))
 (let ((?x943 (* (- (/ 1.0 2.0)) B)))
 (let (($x51 (= L_1 L_0)))
 (let (($x11714 (not (<= 0.0 (+ B S_4 (* (- 2.0) A_1) S_0 (* 2.0 L_1))))))
 (let ((?x1707 (* (- 3.0) L_1)))
 (let ((?x980 (* (- 1.0) S_0)))
 (let ((?x1253 (* (- 2.0) S_3)))
 (let ((?x1687 (* 3.0 A_1)))
 (let ((?x1575 (* (- 3.0) B)))
 (let ((?x978 (* (- 2.0) L_1)))
 (let ((?x465 (* (- 1.0) S_1)))
 (let ((?x443 (* (- 1.0) S_3)))
 (let ((?x979 (* 2.0 A_1)))
 (let ((?x981 (* (- 2.0) B)))
 (let ((?x1579 (* 3.0 S_0)))
 (let ((?x1700 (* 4.0 B)))
 (let (($x13058 (or $x51 (<= (+ ?x1700 S_4 (* (- 4.0) A_1) ?x1579 (* 4.0 L_1)) 0.0))))
 (let ((?x1712 (* 2.0 S_0)))
 (let ((?x1710 (* 3.0 B)))
 (let (($x9869 (or $x51 (<= (+ ?x1710 (* (- 3.0) A_1) S_3 ?x1712 (* 3.0 L_1)) 0.0))))
 (let (($x1720 (<= (+ (* 2.0 B) (* (- 2.0) A_1) S_2 S_0 (* 2.0 L_1)) 0.0)))
 (let (($x11239 (or $x51 (<= (+ ?x953 (* (- (/ 1.0 2.0)) S_4) ?x954 S_2 (* (/ 1.0 2.0) B)) 0.0))))
 (let (($x344 (<= (+ (* (- (/ 1.0 2.0)) L_1) (* (- (/ 1.0 2.0)) S_4) (* (/ 1.0 2.0) A_1) ?x943) (- 5.0))))
 (let ((?x970 (* (- (/ 3.0 2.0)) B)))
 (let ((?x1005 (* (- 1.0) A_0)))
 (let ((?x969 (* (/ 3.0 2.0) A_1)))
 (let ((?x941 (* (- (/ 1.0 2.0)) S_4)))
 (let ((?x967 (* (- (/ 3.0 2.0)) L_1)))
 (let (($x117 (>= S_4 S_3)))
 (let (($x961 (<= (+ (* (- 1.0) L_1) A_1 (* (- 1.0) S_2) (* (- 1.0) B)) 0.0)))
 (let (($x108 (>= S_1 S_0)))
 (let (($x111 (>= S_2 S_1)))
 (let (($x114 (>= S_3 S_2)))
 (let (($x119 (>= A_1 A_0)))
 (let (($x120 (>= A_2 A_1)))
 (let (($x121 (>= A_3 A_2)))
 (let (($x122 (>= A_4 A_3)))
 (and $x122 $x121 $x120 $x119 $x114 $x111 $x108 (or (not (<= 0.0 (+ (* (- 1.0) L_1) L_0))) $x51) $x961 (<= (+ ?x967 ?x941 ?x969 ?x465 ?x970) 0.0) $x117 (or $x51 (<= (+ L_1 (* (- 1.0) A_1) S_1 B) 0.0)) (<= (+ ?x967 ?x941 ?x969 ?x1005 ?x970 L_0) 0.0) (<= (+ ?x978 (* (- 1.0) S_4) ?x979 ?x980 ?x981) 0.0) $x344 $x11239 (or $x51 (<= (+ B (* (- 1.0) A_1) S_0 L_1) (- 5.0))) (or $x51 $x1720) $x9869 $x13058 (<= (+ (* (- 1.0) B) A_1 ?x443 (* (- 1.0) L_1)) (- 5.0)) (<= (+ ?x981 S_4 ?x979 (* (- 3.0) S_3) ?x978) 0.0) (<= (+ ?x981 ?x979 ?x1005 ?x443 ?x978 L_0) 0.0) (<= (+ ?x981 ?x979 ?x443 ?x465 ?x978) 0.0) (<= (+ ?x1575 ?x1687 ?x1253 ?x980 ?x1707) 0.0) (or $x51 $x11714) (or $x51 (not (<= 0.0 (+ ?x943 ?x950 ?x954 ?x953)))) $x11492 $x15664 (not (<= 0.0 (+ ?x1575 S_4 ?x1005 L_0))) (or (<= (+ (* (- 1.0) S_2) S_0) (- 5.0)) $x15893) (or (<= (+ S_4 ?x1253 S_0) 0.0) $x13256) (or (<= (+ S_3 (* (- 3.0) S_2) ?x1712) 0.0) $x15893) $x16001 (or (<= (+ S_4 (* (- 4.0) S_2) ?x1579) 0.0) $x15893) $x16132 $x4642 $x34 (not (>= (+ L_1 (* (- 1.0) A_2) S_4) 0.0)) (<= (+ ?x1005 S_0 L_0) 0.0) (not (>= (+ (* (- 1.0) B) S_4 ?x443) 0.0)) (<= (+ ?x443 S_1) (- 5.0)) (<= (+ S_4 (* (- 3.0) S_3) (* 2.0 S_1)) 0.0) (<= (+ ?x941 (* (/ 1.0 2.0) S_1)) (- 5.0)) $x2105 $x3972 (<= (+ ?x1253 (* 3.0 S_1) ?x980) 0.0) (<= (+ (* (- 1.0) S_4) S_2) (- 5.0)) $x6614 (<= (+ (* (- 3.0) S_4) (* 4.0 S_2) ?x980) 0.0) (<= (+ (* (- 2.0) S_4) (* 3.0 S_2) ?x465) 0.0) (<= (+ (* (- 1.0) S_4) (* 2.0 S_1) ?x980) 0.0) (not (>= (+ ?x981 S_4 (* (- 1.0) S_2)) 0.0)) (<= (+ L_1 (* (- 1.0) A_1) S_1) 0.0) (not (>= (+ ?x1575 S_4 ?x465) 0.0)) (not (>= (+ (* (- 4.0) B) S_4 ?x980) 0.0)) (not (>= (+ ?x981 S_4 (* (- 1.0) A_1) L_1) 0.0))))))))))))))))))))))))))))))))))))))))))))))))))))))
(check-sat)
